60

 0   1   2   3   1   2   3   4   2   3   4   5   3   4   5   6   4   5   6   7   5   6   7   8   6   7   8   9   7   8   9  10   8   9  10  11   9  10  11  12  10  11  12  13  11  12  13  14  12  13  14  15  13  14  15  16  14  15  16  17  
 1   0   1   2   2   1   2   3   3   2   3   4   4   3   4   5   5   4   5   6   6   5   6   7   7   6   7   8   8   7   8   9   9   8   9  10  10   9  10  11  11  10  11  12  12  11  12  13  13  12  13  14  14  13  14  15  15  14  15  16  
 2   1   0   1   3   2   1   2   4   3   2   3   5   4   3   4   6   5   4   5   7   6   5   6   8   7   6   7   9   8   7   8  10   9   8   9  11  10   9  10  12  11  10  11  13  12  11  12  14  13  12  13  15  14  13  14  16  15  14  15  
 3   2   1   0   4   3   2   1   5   4   3   2   6   5   4   3   7   6   5   4   8   7   6   5   9   8   7   6  10   9   8   7  11  10   9   8  12  11  10   9  13  12  11  10  14  13  12  11  15  14  13  12  16  15  14  13  17  16  15  14  
 1   2   3   4   0   1   2   3   1   2   3   4   2   3   4   5   3   4   5   6   4   5   6   7   5   6   7   8   6   7   8   9   7   8   9  10   8   9  10  11   9  10  11  12  10  11  12  13  11  12  13  14  12  13  14  15  13  14  15  16  
 2   1   2   3   1   0   1   2   2   1   2   3   3   2   3   4   4   3   4   5   5   4   5   6   6   5   6   7   7   6   7   8   8   7   8   9   9   8   9  10  10   9  10  11  11  10  11  12  12  11  12  13  13  12  13  14  14  13  14  15  
 3   2   1   2   2   1   0   1   3   2   1   2   4   3   2   3   5   4   3   4   6   5   4   5   7   6   5   6   8   7   6   7   9   8   7   8  10   9   8   9  11  10   9  10  12  11  10  11  13  12  11  12  14  13  12  13  15  14  13  14  
 4   3   2   1   3   2   1   0   4   3   2   1   5   4   3   2   6   5   4   3   7   6   5   4   8   7   6   5   9   8   7   6  10   9   8   7  11  10   9   8  12  11  10   9  13  12  11  10  14  13  12  11  15  14  13  12  16  15  14  13  
 2   3   4   5   1   2   3   4   0   1   2   3   1   2   3   4   2   3   4   5   3   4   5   6   4   5   6   7   5   6   7   8   6   7   8   9   7   8   9  10   8   9  10  11   9  10  11  12  10  11  12  13  11  12  13  14  12  13  14  15  
 3   2   3   4   2   1   2   3   1   0   1   2   2   1   2   3   3   2   3   4   4   3   4   5   5   4   5   6   6   5   6   7   7   6   7   8   8   7   8   9   9   8   9  10  10   9  10  11  11  10  11  12  12  11  12  13  13  12  13  14  
 4   3   2   3   3   2   1   2   2   1   0   1   3   2   1   2   4   3   2   3   5   4   3   4   6   5   4   5   7   6   5   6   8   7   6   7   9   8   7   8  10   9   8   9  11  10   9  10  12  11  10  11  13  12  11  12  14  13  12  13  
 5   4   3   2   4   3   2   1   3   2   1   0   4   3   2   1   5   4   3   2   6   5   4   3   7   6   5   4   8   7   6   5   9   8   7   6  10   9   8   7  11  10   9   8  12  11  10   9  13  12  11  10  14  13  12  11  15  14  13  12  
 3   4   5   6   2   3   4   5   1   2   3   4   0   1   2   3   1   2   3   4   2   3   4   5   3   4   5   6   4   5   6   7   5   6   7   8   6   7   8   9   7   8   9  10   8   9  10  11   9  10  11  12  10  11  12  13  11  12  13  14  
 4   3   4   5   3   2   3   4   2   1   2   3   1   0   1   2   2   1   2   3   3   2   3   4   4   3   4   5   5   4   5   6   6   5   6   7   7   6   7   8   8   7   8   9   9   8   9  10  10   9  10  11  11  10  11  12  12  11  12  13  
 5   4   3   4   4   3   2   3   3   2   1   2   2   1   0   1   3   2   1   2   4   3   2   3   5   4   3   4   6   5   4   5   7   6   5   6   8   7   6   7   9   8   7   8  10   9   8   9  11  10   9  10  12  11  10  11  13  12  11  12  
 6   5   4   3   5   4   3   2   4   3   2   1   3   2   1   0   4   3   2   1   5   4   3   2   6   5   4   3   7   6   5   4   8   7   6   5   9   8   7   6  10   9   8   7  11  10   9   8  12  11  10   9  13  12  11  10  14  13  12  11  
 4   5   6   7   3   4   5   6   2   3   4   5   1   2   3   4   0   1   2   3   1   2   3   4   2   3   4   5   3   4   5   6   4   5   6   7   5   6   7   8   6   7   8   9   7   8   9  10   8   9  10  11   9  10  11  12  10  11  12  13  
 5   4   5   6   4   3   4   5   3   2   3   4   2   1   2   3   1   0   1   2   2   1   2   3   3   2   3   4   4   3   4   5   5   4   5   6   6   5   6   7   7   6   7   8   8   7   8   9   9   8   9  10  10   9  10  11  11  10  11  12  
 6   5   4   5   5   4   3   4   4   3   2   3   3   2   1   2   2   1   0   1   3   2   1   2   4   3   2   3   5   4   3   4   6   5   4   5   7   6   5   6   8   7   6   7   9   8   7   8  10   9   8   9  11  10   9  10  12  11  10  11  
 7   6   5   4   6   5   4   3   5   4   3   2   4   3   2   1   3   2   1   0   4   3   2   1   5   4   3   2   6   5   4   3   7   6   5   4   8   7   6   5   9   8   7   6  10   9   8   7  11  10   9   8  12  11  10   9  13  12  11  10  
 5   6   7   8   4   5   6   7   3   4   5   6   2   3   4   5   1   2   3   4   0   1   2   3   1   2   3   4   2   3   4   5   3   4   5   6   4   5   6   7   5   6   7   8   6   7   8   9   7   8   9  10   8   9  10  11   9  10  11  12  
 6   5   6   7   5   4   5   6   4   3   4   5   3   2   3   4   2   1   2   3   1   0   1   2   2   1   2   3   3   2   3   4   4   3   4   5   5   4   5   6   6   5   6   7   7   6   7   8   8   7   8   9   9   8   9  10  10   9  10  11  
 7   6   5   6   6   5   4   5   5   4   3   4   4   3   2   3   3   2   1   2   2   1   0   1   3   2   1   2   4   3   2   3   5   4   3   4   6   5   4   5   7   6   5   6   8   7   6   7   9   8   7   8  10   9   8   9  11  10   9  10  
 8   7   6   5   7   6   5   4   6   5   4   3   5   4   3   2   4   3   2   1   3   2   1   0   4   3   2   1   5   4   3   2   6   5   4   3   7   6   5   4   8   7   6   5   9   8   7   6  10   9   8   7  11  10   9   8  12  11  10   9  
 6   7   8   9   5   6   7   8   4   5   6   7   3   4   5   6   2   3   4   5   1   2   3   4   0   1   2   3   1   2   3   4   2   3   4   5   3   4   5   6   4   5   6   7   5   6   7   8   6   7   8   9   7   8   9  10   8   9  10  11  
 7   6   7   8   6   5   6   7   5   4   5   6   4   3   4   5   3   2   3   4   2   1   2   3   1   0   1   2   2   1   2   3   3   2   3   4   4   3   4   5   5   4   5   6   6   5   6   7   7   6   7   8   8   7   8   9   9   8   9  10  
 8   7   6   7   7   6   5   6   6   5   4   5   5   4   3   4   4   3   2   3   3   2   1   2   2   1   0   1   3   2   1   2   4   3   2   3   5   4   3   4   6   5   4   5   7   6   5   6   8   7   6   7   9   8   7   8  10   9   8   9  
 9   8   7   6   8   7   6   5   7   6   5   4   6   5   4   3   5   4   3   2   4   3   2   1   3   2   1   0   4   3   2   1   5   4   3   2   6   5   4   3   7   6   5   4   8   7   6   5   9   8   7   6  10   9   8   7  11  10   9   8  
 7   8   9  10   6   7   8   9   5   6   7   8   4   5   6   7   3   4   5   6   2   3   4   5   1   2   3   4   0   1   2   3   1   2   3   4   2   3   4   5   3   4   5   6   4   5   6   7   5   6   7   8   6   7   8   9   7   8   9  10  
 8   7   8   9   7   6   7   8   6   5   6   7   5   4   5   6   4   3   4   5   3   2   3   4   2   1   2   3   1   0   1   2   2   1   2   3   3   2   3   4   4   3   4   5   5   4   5   6   6   5   6   7   7   6   7   8   8   7   8   9  
 9   8   7   8   8   7   6   7   7   6   5   6   6   5   4   5   5   4   3   4   4   3   2   3   3   2   1   2   2   1   0   1   3   2   1   2   4   3   2   3   5   4   3   4   6   5   4   5   7   6   5   6   8   7   6   7   9   8   7   8  
10   9   8   7   9   8   7   6   8   7   6   5   7   6   5   4   6   5   4   3   5   4   3   2   4   3   2   1   3   2   1   0   4   3   2   1   5   4   3   2   6   5   4   3   7   6   5   4   8   7   6   5   9   8   7   6  10   9   8   7  
 8   9  10  11   7   8   9  10   6   7   8   9   5   6   7   8   4   5   6   7   3   4   5   6   2   3   4   5   1   2   3   4   0   1   2   3   1   2   3   4   2   3   4   5   3   4   5   6   4   5   6   7   5   6   7   8   6   7   8   9  
 9   8   9  10   8   7   8   9   7   6   7   8   6   5   6   7   5   4   5   6   4   3   4   5   3   2   3   4   2   1   2   3   1   0   1   2   2   1   2   3   3   2   3   4   4   3   4   5   5   4   5   6   6   5   6   7   7   6   7   8  
10   9   8   9   9   8   7   8   8   7   6   7   7   6   5   6   6   5   4   5   5   4   3   4   4   3   2   3   3   2   1   2   2   1   0   1   3   2   1   2   4   3   2   3   5   4   3   4   6   5   4   5   7   6   5   6   8   7   6   7  
11  10   9   8  10   9   8   7   9   8   7   6   8   7   6   5   7   6   5   4   6   5   4   3   5   4   3   2   4   3   2   1   3   2   1   0   4   3   2   1   5   4   3   2   6   5   4   3   7   6   5   4   8   7   6   5   9   8   7   6  
 9  10  11  12   8   9  10  11   7   8   9  10   6   7   8   9   5   6   7   8   4   5   6   7   3   4   5   6   2   3   4   5   1   2   3   4   0   1   2   3   1   2   3   4   2   3   4   5   3   4   5   6   4   5   6   7   5   6   7   8  
10   9  10  11   9   8   9  10   8   7   8   9   7   6   7   8   6   5   6   7   5   4   5   6   4   3   4   5   3   2   3   4   2   1   2   3   1   0   1   2   2   1   2   3   3   2   3   4   4   3   4   5   5   4   5   6   6   5   6   7  
11  10   9  10  10   9   8   9   9   8   7   8   8   7   6   7   7   6   5   6   6   5   4   5   5   4   3   4   4   3   2   3   3   2   1   2   2   1   0   1   3   2   1   2   4   3   2   3   5   4   3   4   6   5   4   5   7   6   5   6  
12  11  10   9  11  10   9   8  10   9   8   7   9   8   7   6   8   7   6   5   7   6   5   4   6   5   4   3   5   4   3   2   4   3   2   1   3   2   1   0   4   3   2   1   5   4   3   2   6   5   4   3   7   6   5   4   8   7   6   5  
10  11  12  13   9  10  11  12   8   9  10  11   7   8   9  10   6   7   8   9   5   6   7   8   4   5   6   7   3   4   5   6   2   3   4   5   1   2   3   4   0   1   2   3   1   2   3   4   2   3   4   5   3   4   5   6   4   5   6   7  
11  10  11  12  10   9  10  11   9   8   9  10   8   7   8   9   7   6   7   8   6   5   6   7   5   4   5   6   4   3   4   5   3   2   3   4   2   1   2   3   1   0   1   2   2   1   2   3   3   2   3   4   4   3   4   5   5   4   5   6  
12  11  10  11  11  10   9  10  10   9   8   9   9   8   7   8   8   7   6   7   7   6   5   6   6   5   4   5   5   4   3   4   4   3   2   3   3   2   1   2   2   1   0   1   3   2   1   2   4   3   2   3   5   4   3   4   6   5   4   5  
13  12  11  10  12  11  10   9  11  10   9   8  10   9   8   7   9   8   7   6   8   7   6   5   7   6   5   4   6   5   4   3   5   4   3   2   4   3   2   1   3   2   1   0   4   3   2   1   5   4   3   2   6   5   4   3   7   6   5   4  
11  12  13  14  10  11  12  13   9  10  11  12   8   9  10  11   7   8   9  10   6   7   8   9   5   6   7   8   4   5   6   7   3   4   5   6   2   3   4   5   1   2   3   4   0   1   2   3   1   2   3   4   2   3   4   5   3   4   5   6  
12  11  12  13  11  10  11  12  10   9  10  11   9   8   9  10   8   7   8   9   7   6   7   8   6   5   6   7   5   4   5   6   4   3   4   5   3   2   3   4   2   1   2   3   1   0   1   2   2   1   2   3   3   2   3   4   4   3   4   5  
13  12  11  12  12  11  10  11  11  10   9  10  10   9   8   9   9   8   7   8   8   7   6   7   7   6   5   6   6   5   4   5   5   4   3   4   4   3   2   3   3   2   1   2   2   1   0   1   3   2   1   2   4   3   2   3   5   4   3   4  
14  13  12  11  13  12  11  10  12  11  10   9  11  10   9   8  10   9   8   7   9   8   7   6   8   7   6   5   7   6   5   4   6   5   4   3   5   4   3   2   4   3   2   1   3   2   1   0   4   3   2   1   5   4   3   2   6   5   4   3  
12  13  14  15  11  12  13  14  10  11  12  13   9  10  11  12   8   9  10  11   7   8   9  10   6   7   8   9   5   6   7   8   4   5   6   7   3   4   5   6   2   3   4   5   1   2   3   4   0   1   2   3   1   2   3   4   2   3   4   5  
13  12  13  14  12  11  12  13  11  10  11  12  10   9  10  11   9   8   9  10   8   7   8   9   7   6   7   8   6   5   6   7   5   4   5   6   4   3   4   5   3   2   3   4   2   1   2   3   1   0   1   2   2   1   2   3   3   2   3   4  
14  13  12  13  13  12  11  12  12  11  10  11  11  10   9  10  10   9   8   9   9   8   7   8   8   7   6   7   7   6   5   6   6   5   4   5   5   4   3   4   4   3   2   3   3   2   1   2   2   1   0   1   3   2   1   2   4   3   2   3  
15  14  13  12  14  13  12  11  13  12  11  10  12  11  10   9  11  10   9   8  10   9   8   7   9   8   7   6   8   7   6   5   7   6   5   4   6   5   4   3   5   4   3   2   4   3   2   1   3   2   1   0   4   3   2   1   5   4   3   2  
13  14  15  16  12  13  14  15  11  12  13  14  10  11  12  13   9  10  11  12   8   9  10  11   7   8   9  10   6   7   8   9   5   6   7   8   4   5   6   7   3   4   5   6   2   3   4   5   1   2   3   4   0   1   2   3   1   2   3   4  
14  13  14  15  13  12  13  14  12  11  12  13  11  10  11  12  10   9  10  11   9   8   9  10   8   7   8   9   7   6   7   8   6   5   6   7   5   4   5   6   4   3   4   5   3   2   3   4   2   1   2   3   1   0   1   2   2   1   2   3  
15  14  13  14  14  13  12  13  13  12  11  12  12  11  10  11  11  10   9  10  10   9   8   9   9   8   7   8   8   7   6   7   7   6   5   6   6   5   4   5   5   4   3   4   4   3   2   3   3   2   1   2   2   1   0   1   3   2   1   2  
16  15  14  13  15  14  13  12  14  13  12  11  13  12  11  10  12  11  10   9  11  10   9   8  10   9   8   7   9   8   7   6   8   7   6   5   7   6   5   4   6   5   4   3   5   4   3   2   4   3   2   1   3   2   1   0   4   3   2   1  
14  15  16  17  13  14  15  16  12  13  14  15  11  12  13  14  10  11  12  13   9  10  11  12   8   9  10  11   7   8   9  10   6   7   8   9   5   6   7   8   4   5   6   7   3   4   5   6   2   3   4   5   1   2   3   4   0   1   2   3  
15  14  15  16  14  13  14  15  13  12  13  14  12  11  12  13  11  10  11  12  10   9  10  11   9   8   9  10   8   7   8   9   7   6   7   8   6   5   6   7   5   4   5   6   4   3   4   5   3   2   3   4   2   1   2   3   1   0   1   2  
16  15  14  15  15  14  13  14  14  13  12  13  13  12  11  12  12  11  10  11  11  10   9  10  10   9   8   9   9   8   7   8   8   7   6   7   7   6   5   6   6   5   4   5   5   4   3   4   4   3   2   3   3   2   1   2   2   1   0   1  
17  16  15  14  16  15  14  13  15  14  13  12  14  13  12  11  13  12  11  10  12  11  10   9  11  10   9   8  10   9   8   7   9   8   7   6   8   7   6   5   7   6   5   4   6   5   4   3   5   4   3   2   4   3   2   1   3   2   1   0  

 0  38   1   0   0   0  88   1   0   0   0   0   0  27   0   0   0   0   0  32   0   0   0  18   0   0   0   1   0  42   1   2   0   3  56   5   0  92   1   0  31   0   1   0   0   0   6  34   0   1   0   0   2   1   0   0   0   0   0   0  
 0   0   0   0  30  16   0   0   0  21   0   0  86   0   0   0   0   0   0   1  16   0   0   0   0   0   0   0   1  84   0   0   1   0   0   0   0  10   1   0   0  80   0   0   1   0   4   0  10  40   0   0   0   0   0   0  26   0  16   0  
 0   0   0   0   0   0  37  18   0  12   1   0   3   2   1   0   0  25  50   0   0   1   0   1   0  48   8   0   0   0  30   1   0   0   0  55   0   0   0  19  17  30   0   0   0   0   1   0   1  17   3   0  59   0   0   1   0   2   8   0  
67   1   0   0   0  12   0   0   0   0   0   0   0   7   0   0   0   0  12   1   0  17   0   0   0   0  19  67   0   0   1   1  84  71   0   0   0  39   0  33  31   0  27   0   0   0  74   0  12  32  57   0   0  29  17   0   0  16   0   0  
 0   0   0   1   0   1   0   0   2   0   0   0   1   1   1  96   0  19  38  79  89   0  17   0  71   0   0   0   0  41   0   0   0   0   0   1  93  31   0   4   0   0  21   0   0  22   1   0   0   0   0  73   0  30  56  22   0   6  21  34  
13   0  12   0   1   0  45   0   1   0   0   0   0   1   9  10   0  91   0   0   1   0   0  79   0   0  87   0  94   1  59   0  63   1   0   0   0   0  44  31   0   0   0  55   0   0   0   0   0   0   0   0   0   7  21   5   0   0   3   8  
 0  54  14   0   0  48   0   0   1   0   9   1   0  31   0   0   8   0   0   1  28   0   7   0   0   0  71   0   1   0   0   0   0   0   0   0  93   4  14  31   1   0   0   0   0   1   0   1   1   0  40   0   0   0  75   0   1   0  38  88  
 0   5   0   0   0   0   7   0   1  14  56   0   1   0   1   0   0   0   0   0   0  86  16  59   0   9   2   2   0   0  10   0   0  69  11   0   0   0   1   8  87   0   1   0   0   2   0   1  52   0   0   0   0   0   0   0   1   0   0   1  
49   0  21  38   0   1   0   8   0   0   0   0   0   0   1  68   0   0   1   0   0   1   1   1   0   0   0  78   0   1  35   0   1   0   0  85   1   0  44  87   0   0   0   0   0   0   1   0   0  84   0  30  17   0   1   6   7   1  61   0  
94   0   0   0   0   1   4  99   1   0   3   0  41   0   7  28   2   0   0  52  52   0   5  86   0   0  65  62   0   0   0   2   0   0   0   0  27   0   0   0   0   0   0  81   0   0  16   0  62   5  34   2   0   0   0   0   0   0   1   0  
 0   0   0   2  45   0   0   0   0   7   0  24   0  33  24   0   0   6  29   0   1   0   0  15   0  42   0   3   0   0   0  33  18   0  10   0   0  37   0   0   0  41  40  34   0   0   7   0   0   0   1   0   8   0   0   0   1  57   1   0  
 0  39   0   0   0   0   8   0  12   0   0   0   0   0   0   1   0   0   1   1   1   0   0   0   0   0   0  31   0   2  73  55  14   0   0  74   0   0   0   0   0   0  58   0   0   0   3   3   0   0   0   0   1   1   0   3   0  38   0   0  
 1   1   0   0  30  16   0   0   6   0   0   0   0   0   0   0   0   0   0   0  33   0  84   0   0   5   6  27  63   0   0   9   0   1   0   0   1   0  13   0   0   0   0  12  41   3  83   0   0   7  17   0   1   0   0   0   1   0   0  92  
 0   2  57   1   1   6  97  35   0   0   1  52  90   0   0   0   0  50   0   0  10  12  57   2   0   0   0  17   0   3   0   0  27  13  13   0   0   0  32   0   0   0   0  15   0   0  22   1   5   0   0   0   0   6   3   1   0   0   0   0  
21   0   0   1   0   0   0   6   0  51   0   1   0   0   0   0  28   0   0   0   0   0   0   0   6   0  21   0   0   1   0  20   0   1  66  10   0   7  27   1   0   0   0  70   0   0   1   0   1  47   3   0   1   0   5   0   0  37  42   0  
 0   0   0   0   0   5  20   0   0   0   0   2   0   0   1   0   0   0  31   0   0   0   0   0   0  38   0   1   0  30   0   0   0   0  87  42   2   0   1   0   0   0   0   0   0  26  65   1   0  14  43   1   2   1   0  37  12   0   0   0  
 1   0  51   0   5   0  60   0  49   0   0   0   0   0   0   0   0   0   0   1   0   0   0   0   0   0   0   4   1   0   0   0   0  40   8  42   0   0  44  20   0  15   0   0   0   0   0   1   0   0   6   0   0   0   0   0  31   0   5   0  
 0   0   0  41   0  99   0   7  61   0   1   1  27   0   0   0   0   0   0   0   0   0   0   0   1   2  24   0  69   0  75  90   8   0   0  71   0   0   1   0   0  65   0   0   0   0   0  31   0   0   3  75  19   0   0  35   0   0   0   0  
 0   0   1  66   4   0   0   0   1   0   0   0   0   8   1   0   6  26   0   0  14  27  21   0  12  85   0   0   0   0   0  41   0   8   0   0   0   0   0  54   1   0   0   0   0   0   0   0   1   0   0   5   0  37   0   0  21   0   0  79  
 0  63   0   0   8  11   2   0   0  13   0   0   0   2   0   0  21   0   0   0  44  14   0   1   0   0   0   0   0   0   0   0   0   0   0   0   0   2   0  36   0   0   0   0  84  13   0  76   0   0   0   1   0   1   8   0  88  21   0  13  
 0   0   0   5   0   0   0   0   0   0   0   0   0   0   6   0   6  26   1   0   0   0   0   0   0   0   0  20   0   4  45  16   0   0   1   0   0   0   0   0   1   0   0   0   0   0   1   0   6   0   0   0   0   0   2   0   0  93  85   0  
49   7   0   0   0   0   0   3   0   0   0   0   6   0   0   0   3   0   1   8   1   0   0   0  77   0   0  17   5   8   0   0   0   0   0   0   0  51   0  12   0   0   0   0   1   0  13  92  63  47   1   0   0   0  43   0   0   1   0   0  
 0   3   0   5   1  10   0   0   1   0  27   1   0   0   0   0   0   5   1   0   7   1   0   7   0  34   0  59  38   0   0   0  12   0   0   0   6   0  52  16   0  25  24   0   2   0   0   4  81   0   0  42  79   0   1   0  57   1   0  11  
 0   0   0  73   0  65   0   0  31  30  43   0   0  54   0   0   0   0   0   0   1   0   0   0   1   0   0   0   0   0   0   1   0  90   1   0   9   2   0   9   0  98   0   0   0   0   1   2   0   0   0  36   0   0  23  14   0   1   0  15  
 0   0   0   0   0   0   0   1   0  17   0  33   1   1  66   0   0   0   0   0   0   9   0   0   0   0   2   0   0  35   0   6   0   0   0  85   0   0   8   0   0  45   0   0   0   0   0   4  83   2   0  13   0   0   0   0   1   8  29   0  
 1   0   0   0   0   0   0   1  39   0   0   0   0   0   0   0  12   0   0   1   0   3  92   0   0   0  44   0   0   1   0   0   0   0   0   0   0   0   0   1   0   0   0   1   0   0  74   0  17   0   0   0   0   0   1   0  57   0   0   1  
40   0   0  13   0   0   0   2   0   1   0  29   0   0   1   0   1   0   0   1   0   0  39  59   0  18   0   0   0  57   1   0   0  11   1   0  83   1   0   0   0  33   0   0   1   0  56   0   0   0  17   0   4  69   0   0  27  28   1   0  
 0   0   0   0   0   0  30   0   1  14   0   0   0   7   0   0   0   7  66   0  63   0   0   1  67   1   0   0   0   1  79   0   0   0  18   0  51   0   0   2   0   0  26   0  22   5   0  35   0   0   0   0   0   0  61   1  10   0  20  69  
 0   0   0   1   9   0   0   0   0   0   0   0  18   0   0   1   0  27   0   6  38   0   0   0   0   0   0   0   0   0   0   3   1   0   0   0   0  10   3   1   0   0   0  18   0   0  19   0  80   0   0  73   0   1   0   0   0  74  49  34  
 0  26   0   0  68   0   0   0   0   0   0   0   0   0   0   0  53   0   0  18   0   0   0   0   1   8   0   0   0   0  54   0   0   0   0   0   0   0   0   0   0   1   0   0  80   0   0  83   7   0   1  24   0   0  88   0   1   0   0  22  
 0   0   8   1   0   0   2   0   0   5   0   1   0   0   0  12   0   0  14   0   0  53   0   0  46  62   1  19   0   0   0   1   1   0   1   0  13  98  91  44   0   0  91   0   0   0   0   0   0   0   0   1  22  82   0   0   0   0   0   0  
 0   0   0   0   0   0   0   0   0   0   0  41   2   0   2   1   0   0   0   0  36   5   0   8   0   0   1   0  14   0   0   0   1   0   0   0   0   2  81   0   0   0   0   0   0   0   3   4   0  42   0   0   0  24   0   0   5   0  87   0  
 0  25   0  75   4   1   0   0   0   0   0   0   0  91   0  78   0   0  12   0   0   0   0   1   0  17   0   0   0   0   0   0   0   0   2   0   0  39   0  12  29   0   0   0   0   0   0   0   0   0  12   0   0   1   0  99   0   0   0  25  
18   1   0   0   0  88   0  88   0   0  77   0  67  26  44   0   0  41   0   0   0   0   1   0   7   0   0   0   0   0   1   1  59   0  22   0  41  31   0   0  25   1   1  99   0   0   1   0  32   0   0   0   0  85  75   0   0   0   0   0  
 0   0   0   1   0   0   0   0  82   0  62   1   0   0   0   0   1   0   0   0   0   4  66   0   0   0   0   0   0   0  34   0   0   0   0   0   0   0   0   1   1   0   1   5   5   0   0   0   0   1  35   6  13   0   1  87  29   0   1   0  
 0   0   0   0   0   0  44   1  89   0  38   1   0  14  89   8  31  16   0   1   0   1  75   0   0   0   0   0   0   7  23   0   0  15   0   0   0   7   0   0   1   0   0   2  56   0   1   0   0  17   0   0   0  24   0   0  16   0   0   0  
 0   0   0   0   0   0   0   0  99  24  44   0   1   0  54  57   0   0   0   0  14   3  31   0   1   0  50   0   0   0  98   0   0  72   0   0   0   0  80   0   9   4   1   0  68   0   0   0   0   0  11  80   0   0   8   0   0  81   0   0  
 0   1  54   1  35  83   0   0  32   1   6   0   0   0   0   0   0   1   0   2   0   0   0   0   1  32   0  86  58   0   0  51   0   0   5   8   0   0   0   1   0   0   0   3   0   0  11   1  30   0  10   0   0   0   1   0  44  18   1  26  
 0   0   1   0  52   0   2  26   0  18   0   0   5   4   3   0  26   0  70   0   1   0   0   0   0   0   0   0   0   0   0   1   0  85   0   1   2   0   0   0  65  57   0   0   0   0   0   0   0   0   0  43  14   0  13   1   0   0   0  36  
 0   0   0   8   0   0  62   0   1   0   0   0   0   0   1  40  21   0  52   4   0   0   0   0   1   0   0   0   0   6   0   0   0   0   0  38   0   1   2   0  12   0   0   0   8   0   0   0   0   0   1   0  65   0   0   0   0   0   0   0  
 1   0   1   0   7   0   1  46   0   0   4   0   0   0   0   7   0   1   0   0   0   1   4   0   1   0  26   0   0   0   0   4   0   0   1  38   0   5   0   0   0   0  27   0  76   0   0  54  96  74   1   0  56   0   0  15  91   0   0  74  
 7   0  22   1  36  80   0   0   0   1   1  12   0   0  99   4   1   0  31  39   1  33   0   1   1   3  83   0   0  61   0  48   0   0   0   0   1   0   0  81  65   0  41   0  44   1   0   0   0   0   0  59   1  23   0   0  66   0   0   0  
 0   0  37   0   0   0   4   0   0   0   2   0   9  43   1   0  78   0   0   0   0   0   1   0   0   0   0   0  12   0   0   0   0   0  19   0   0   0   0   0   0   0   0   0   0   0   0  22   1   6   0  17  27  24   0   0   0   0   3   0  
 0   0   0   0   0   0   0  28   0   1   4   0   0   0   0  12  12   0   1   0   0   2   0   0   3   0  16   0   0   0   0   0   4   0   1  90   1   1   0   1   0   1   0   0   0   0   0   3  47   0   0   4   0   0   2   0   0   1   0   0  
26   0   0   4   0   0   0  42   1   0  31  30   0   0   4   0   0   0  82  87   0   0   0   0   4   0   0   0   2   0   0   0   0   0   0   0  71   0   0  21  85   0   0   1   0   0  51   1  60   0  45  14   1   0   0   0   0  15   0   0  
 0   0   0   0   0   1  77   0   0  29   0   0   0   0  41  18  18   0   0   0   0   4  14   0  24   0  47   0   0   0   0  58  17   0   0  50   2   0   0   1   0  22   0   0   0   0   0  71   0  53   0   0   0   0   0   0   0   0  87   0  
 0   0   1   0   0   0   0  30   0   0  67   4   0  50   0  33  87  85   0  14   0   1   0   0   0   0  35  14  17   0   5   0   8   5   0   1   0   0   0   0   0   0   1   0   0  89   0   0   0   0   0   0   1   1  48   0   1  37   0   0  
16   0  81  10   0   0  67   0   2   0   0   7  26   0  86   2   0  49   0   1  75   0  60   0   0  15   5   0   0  33   0   0   0   0  35   0  67   0  12   1  85   7   4   0  53   0   0   0   0   0   0   0   0  40   0   0   0   0  52   0  
 0   0   0   0   0   1   0   1   0   3  26   0  39   0   1   1   0   0   0   0   0   0   0   0   0   0   0   0  37  21   0   0   0   9   0   0   1   1  59   0   0   1  26   0   0   0   0   0   0   0   0   0  32   0   0   0  98   8   0  28  
 1   0   0   1   1  87  29   0   0   0   8  57   0  43  40  51   0  86   0  26   2   0   0   0   0   0  26  27  90   0   0   0   0  53   2   0   0   0   0   0   0   0   0   0   0   0   0   0   0   0   1   0  23   3   0  96   0   3   0   0  
 0  49  17   0   0   0  67   0   1  62   1  46   8   2   0   0  49  45   0   0   0   0   0   0  29   0   0   0   0   0   0   6   0   0   1   0  41   0   0  54   0  23   0   0   0   1   4   1   0   3   0   0   0   0   0   0  17   0  13   0  
 0  70   0   0   0  95   0   0   0   0   1   0   0   0  25   0   0   1   0   1   1   0  12   0   0   6   2  35   0   0  93   0   0   0  66   0  28   6   0   5  12  85   0   0   0   0   1  28   0   0  85   0  93   0   0   0   0   0   3   0  
 1   9   0   9   0   0  50   0   1   1  56   0   0   0   0  61   0   0   0   3   0  71   0   0   0   9   0  13   0   0   2   0   1  43   0  23   0   0   0   8   0   0   2   0   0   0   0   0   0   0   0  62   0   0   0   1   0   0   0   0  
 3   1   0   0   0  51  36   0   9   0   1   0   0   0   1  32   0  68   0   0  37   1   0   0   0   4   0   0   0  53   0   0   0  16   0   0   0   0   1  56   0  54  48   0   1   0   0   0   1   0   0   1   0   0  29   0   0   0  28   0  
 1   0   0   0   0   5   0   1  40  52   0   0   1   0  54   0   1   0   0   3   0  62   0   6  50  13   2   0   0   0   1   0   0   0   0  61   0   0   0  58  73   0   0   0  91   0   5   0   1   0   0   7   0   0   0   0   0   9   0   0  
 0   0   0   0   0   7  60   0   0   0   3   0   0   0   1   1   1   0   0   0   0   0  17  26   0   0   0  25  91  95   1   4   0   3   0  23   0   0   0   2  45   0   9   0   0   0   4   0   0   0   0   0   0  23  22   0   0   1   1   0  
 0   0   3  27   0   0   0   3   0   0   0   9  76   3   0   0   5   0   0  97  91   1   0   0   1   0   3   0   0   0   6   2   0   0  11   0  38   0  96   1   1   0   0  39  46   1  40  63   0  17   0   0  11   0   0   0   0   0   0   0  
 1   1  16   0   0   0  57   0   0   0   0  27   0   0   0   0  37   0   0   0   0   1   0   0   0   0  93   0   0   0   0   0   0   1   0   0   0   0  54   6   0   0   0   0   0   1   0   0   0   0   0  71   0  36   0   5   0   0   0   0  
 0  60   8   0   0   0   0   0   0   0   0  26   0   0   0   0   0  18  42   0   0   0   0   0   0   0   0   0   3  23   0   3   0  66   0  16   1  26   1  18   1   0   0   0   0   0   0  10   0   0  88   0   1   0   0   0   1   0   0   1  
 0   0  10   0   0   0   0   0   1   0   0   0   0   3   0   0   0   0  61   0   0   0   0   0   1   0   0  18   0   1   0   0   0   0   0   1   0  95   0   0   0  38   0  15   1   0   0   1   0  39   0   0   0   1   0   2   1   1   1   0  
